set H_plus := H1 H2;
set H_minus := H_1 H_2;
set W_plus := W1 W2 W3 W4;
set W_minus := W_1 W_2 W_3 W_4;
set V := v1 v2;
set C := (W_1,W_2) (W_2,W_3) (W_3,W_4);

param h_plus := 
v1 H1
v2 H2;

param h_minus := 
v1 H_1
v2 H_2;

param c :=
v1 100
v2 50;

param s :=
W_1 10
W_2 10
W_3 12
W_4 15;

param d :=
W1 40
W2 30
W3 70
W4 10;

param t:
          H1    H2    H_1    H_2    W1    W2    W3    W4    W_1    W_2    W_3    W_4 :=
  H1      0    10    10     10     10    10    10    10    10     10     10     10
  H2      10    0    10     10     10    10    10    10    10     10     10     10
  H_1     10    10    0     10     10    10    10    10    10     10     10     10
  H_2     10    10    10     0     10    10    10    10    10     10     10     10
  W1      10    10    10     10     0    10    10    10    10     10     10     10
  W2      10    10    10     10     10    0    10    10    10     10     10     10
  W3      10    10    10     10     10    10    0    10    10     10     10     10
  W4      10    10    10     10     10    10    10    0    10     10     10     10
  W_1     10    10    10     10     10    10    10    10    0     10     10     10
  W_2     10    10    10     10     10    10    10    10    10     0     10     10
  W_3     10    10    10     10     10    10    10    10    10     10     0     10
  W_4     10    10    10     10     10    10    10    10    10     10     10     0;

param r :=
W1 W_1
W2 W_2
W3 W_3
W4 W_4;
